qbf_easy_train/easy_5793_SAT.qdimacs
p cnf 30 84
a 3 21 0
e 1 2 4 5 6 7 8 9 10 11 12 13 14 15 16 17 18 19 20 22 23 24 25 26 27 28 29 30 0
3 -1 0
3 -2 0
1 2 -3 0
6 -4 0
6 5 0
4 -5 -6 0
1 -4 -7 0
-1 4 -7 0
1 4 7 0
-1 -4 7 0
6 7 -8 0
-6 -7 -8 0
6 -7 8 0
-6 7 8 0
-10 -2 -11 0
10 2 -11 0
-10 2 11 0
10 -2 11 0
-9 -11 -12 0
9 11 -12 0
-9 11 12 0
9 -11 12 0
-13 8 0
-13 -12 0
-8 12 13 0
14 -3 0
14 13 0
3 -13 -14 0
15 -4 0
15 5 0
4 -5 -15 0
-16 15 0
-16 -9 0
-15 9 16 0
18 -17 0
18 17 0
16 18 -19 0
-16 -18 -19 0
16 -18 19 0
-16 18 19 0
20 14 0
20 19 0
-14 -19 -20 0
-21 -9 -22 0
21 9 -22 0
-21 9 22 0
21 -9 22 0
-23 -1 0
-23 22 0
1 -22 23 0
-23 5 -24 0
23 -5 -24 0
-23 -5 24 0
23 5 24 0
20 -24 -25 0
-20 24 -25 0
20 24 25 0
-20 -24 25 0
-7 -21 -26 0
7 21 -26 0
-7 21 26 0
7 -21 26 0
-4 22 -27 0
4 -22 -27 0
-4 -22 27 0
4 22 27 0
28 -5 0
28 -27 0
5 27 -28 0
29 -26 0
29 28 0
26 -28 -29 0
-30 -25 0
-30 -29 0
25 29 30 0
9 -13 8 22 0
18 -12 19 29 0
-20 -25 5 22 1 0
-6 -2 12 -11 -14 9 0
9 -15 10 -30 25 -22 0
-17 -4 18 0
-27 7 16 -5 8 0
4 8 25 3 26 0
30 0
