sat_easy_train/easy_5793_SAT.dimacs
p cnf 144 493
-4 2 0
-4 -3 0
-2 3 4 0
-4 5 -6 0
4 -5 -6 0
-4 -5 6 0
4 5 6 0
-7 -1 0
-7 -6 0
1 6 7 0
8 -5 0
8 -3 0
5 3 -8 0
-9 -2 0
-9 -8 0
2 8 9 0
-13 -11 0
-13 -12 0
11 12 13 0
-14 13 0
-14 -3 0
-13 3 14 0
-15 -10 0
-15 -14 0
10 14 15 0
-9 15 -16 0
9 -15 -16 0
-9 -15 16 0
9 15 16 0
-19 17 0
-19 -18 0
-17 18 19 0
19 -4 -20 0
-19 4 -20 0
19 4 20 0
-19 -4 20 0
19 6 -21 0
-19 -6 -21 0
19 -6 21 0
-19 6 21 0
-20 -21 -22 0
20 21 -22 0
-20 21 22 0
20 -21 22 0
-23 16 0
-23 -22 0
-16 22 23 0
-7 -23 -24 0
7 23 -24 0
-7 23 24 0
7 -23 24 0
-25 20 0
-25 9 0
-20 -9 25 0
26 -24 0
26 25 0
24 -25 -26 0
-19 10 -27 0
19 -10 -27 0
-19 -10 27 0
19 10 27 0
29 -13 0
29 17 0
13 -17 -29 0
-30 6 0
-30 29 0
-6 -29 30 0
28 -30 -31 0
-28 30 -31 0
28 30 31 0
-28 -30 31 0
32 -12 0
32 -31 0
12 31 -32 0
-5 4 -33 0
5 -4 -33 0
-5 -4 33 0
5 4 33 0
-33 28 -34 0
33 -28 -34 0
-33 -28 34 0
33 28 34 0
-35 -10 0
-35 34 0
10 -34 35 0
36 -32 0
36 -35 0
32 35 -36 0
37 3 0
37 -15 0
-3 15 -37 0
-38 -30 -39 0
38 30 -39 0
-38 30 39 0
38 -30 39 0
-40 37 0
-40 -39 0
-37 39 40 0
41 33 0
41 40 0
-33 -40 -41 0
-42 -36 0
-42 -41 0
36 41 42 0
4 5 -43 0
-4 -5 -43 0
4 -5 43 0
-4 5 43 0
44 43 0
44 -13 0
-43 13 -44 0
-45 6 0
-45 44 0
-6 -44 45 0
46 21 0
46 45 0
-21 -45 -46 0
-47 28 0
-47 2 0
-28 -2 47 0
-46 47 -48 0
46 -47 -48 0
-46 -47 48 0
46 47 48 0
-49 42 0
-49 48 0
-42 -48 49 0
27 49 -50 0
-27 -49 -50 0
27 -49 50 0
-27 49 50 0
-51 26 0
-51 -50 0
-26 50 51 0
52 -1 -53 0
-52 1 -53 0
52 1 53 0
-52 -1 53 0
18 -5 -54 0
-18 5 -54 0
18 5 54 0
-18 -5 54 0
55 -28 0
55 54 0
28 -54 -55 0
-53 55 -56 0
53 -55 -56 0
-53 -55 56 0
53 55 56 0
-28 -22 -57 0
28 22 -57 0
-28 22 57 0
28 -22 57 0
58 56 0
58 -57 0
-56 57 -58 0
43 10 -59 0
-43 -10 -59 0
43 -10 59 0
-43 10 59 0
14 -31 -60 0
-14 31 -60 0
14 31 60 0
-14 -31 60 0
-61 59 0
-61 -60 0
-59 60 61 0
58 -61 -62 0
-58 61 -62 0
58 61 62 0
-58 -61 62 0
64 -28 0
64 -63 0
28 63 -64 0
5 -64 -65 0
-5 64 -65 0
5 64 65 0
-5 -64 65 0
66 -45 0
66 64 0
45 -64 -66 0
-67 10 0
-67 21 0
-10 -21 67 0
19 67 -68 0
-19 -67 -68 0
19 -67 68 0
-19 67 68 0
-69 66 0
-69 68 0
-66 -68 69 0
65 69 -70 0
-65 -69 -70 0
65 -69 70 0
-65 69 70 0
71 -62 0
71 -70 0
62 70 -71 0
51 -71 -72 0
-51 71 -72 0
51 71 72 0
-51 -71 72 0
-73 -31 0
-73 -11 0
31 11 73 0
-74 -12 0
-74 -67 0
12 67 74 0
-21 20 -75 0
21 -20 -75 0
-21 -20 75 0
21 20 75 0
76 75 0
76 31 0
-75 -31 -76 0
-77 2 0
-77 -20 0
-2 20 77 0
78 6 0
78 1 0
-6 -1 -78 0
79 77 0
79 -78 0
-77 78 -79 0
3 17 -80 0
-3 -17 -80 0
3 -17 80 0
-3 17 80 0
81 80 0
81 -19 0
-80 19 -81 0
-82 -79 0
-82 81 0
79 -81 82 0
-37 83 -84 0
37 -83 -84 0
-37 -83 84 0
37 83 84 0
-85 -82 0
-85 -84 0
82 84 85 0
-86 -76 0
-86 -85 0
76 85 86 0
87 -74 0
87 -86 0
74 86 -87 0
-88 -45 0
-88 -18 0
45 18 88 0
17 -63 -89 0
-17 63 -89 0
17 63 89 0
-17 -63 89 0
90 -89 0
90 -20 0
89 20 -90 0
-91 -88 0
-91 90 0
88 -90 91 0
87 -91 -92 0
-87 91 -92 0
87 91 92 0
-87 -91 92 0
-73 -92 -93 0
73 92 -93 0
-73 92 93 0
73 -92 93 0
28 29 -94 0
-28 -29 -94 0
28 -29 94 0
-28 29 94 0
-89 9 -95 0
89 -9 -95 0
-89 -9 95 0
89 9 95 0
-96 19 0
-96 -95 0
-19 95 96 0
97 -94 0
97 96 0
94 -96 -97 0
-98 4 0
-98 13 0
-4 -13 98 0
99 4 0
99 12 0
-4 -12 -99 0
-100 21 0
-100 -20 0
-21 20 100 0
-101 -99 0
-101 -100 0
99 100 101 0
-102 -4 0
-102 101 0
4 -101 102 0
-103 -98 0
-103 -102 0
98 102 103 0
-104 45 0
-104 60 0
-45 -60 104 0
-105 103 0
-105 -104 0
-103 104 105 0
2 -29 -106 0
-2 29 -106 0
2 29 106 0
-2 -29 106 0
-107 11 0
-107 106 0
-11 -106 107 0
108 2 0
108 -29 0
-2 29 -108 0
-109 108 0
-109 67 0
-108 -67 109 0
110 107 0
110 109 0
-107 -109 -110 0
-105 -110 -111 0
105 110 -111 0
-105 110 111 0
105 -110 111 0
5 -28 -112 0
-5 28 -112 0
5 28 112 0
-5 -28 112 0
-113 111 0
-113 112 0
-111 -112 113 0
114 28 0
114 6 0
-28 -6 -114 0
-115 -113 0
-115 -114 0
113 114 115 0
-116 97 0
-116 -115 0
-97 115 116 0
-93 116 -117 0
93 -116 -117 0
-93 -116 117 0
93 116 117 0
-118 72 0
-118 117 0
-72 -117 118 0
119 29 0
119 1 0
-29 -1 -119 0
7 78 -120 0
-7 -78 -120 0
7 -78 120 0
-7 78 120 0
-120 80 -121 0
120 -80 -121 0
-120 -80 121 0
120 80 121 0
43 -122 -123 0
-43 122 -123 0
43 122 123 0
-43 -122 123 0
124 11 0
124 64 0
-11 -64 -124 0
-125 -123 0
-125 124 0
123 -124 125 0
-126 121 0
-126 -125 0
-121 125 126 0
127 -119 0
127 -126 0
119 126 -127 0
129 -128 0
129 23 0
128 -23 -129 0
130 -89 0
130 -19 0
89 19 -130 0
131 -130 0
131 -1 0
130 1 -131 0
-129 131 -132 0
129 -131 -132 0
-129 -131 132 0
129 131 132 0
-133 16 0
-133 -60 0
-16 60 133 0
-134 -132 0
-134 -133 0
132 133 134 0
-135 30 0
-135 43 0
-30 -43 135 0
-21 -29 -136 0
21 29 -136 0
-21 29 136 0
21 -29 136 0
-122 -136 -137 0
122 136 -137 0
-122 136 137 0
122 -136 137 0
138 78 0
138 -137 0
-78 137 -138 0
-139 -135 0
-139 -138 0
135 138 139 0
140 134 0
140 -139 0
-134 139 -140 0
141 -127 0
141 -140 0
127 140 -141 0
-142 -130 0
-142 59 0
130 -59 142 0
-141 -142 -143 0
141 142 -143 0
-141 142 143 0
141 -142 143 0
-144 -118 0
-144 -143 0
118 143 144 0
-95 42 -72 53 0
76 -122 0
-46 88 73 -144 -54 -63 0
-97 82 27 0
96 -12 19 0
-82 -85 -31 21 3 53 0
94 7 -81 98 9 20 0
-109 98 114 -11 -131 -76 0
126 37 38 0
-42 89 0
-108 23 -38 0
111 54 137 -3 53 -107 0
126 -40 110 0
-74 -132 -79 125 -52 142 0
-45 80 44 50 -2 -110 0
50 -132 68 0
-102 -90 -63 57 0
-98 -21 94 52 0
-126 -5 4 -29 91 -48 0
-104 -82 -71 98 0
84 58 82 -25 0
-55 13 2 134 73 0
140 -26 0
100 -3 5 7 0
115 73 -126 107 -82 12 0
20 -87 0
67 11 45 -19 49 0
-113 -53 -43 12 -112 0
-133 131 126 0
-17 63 35 137 0
23 76 142 57 0
75 -139 0
74 130 2 0
107 -137 138 3 67 0
30 74 -33 86 -115 -56 0
121 142 0
-19 22 -12 -129 0
16 -118 -83 -106 108 0
39 -138 -1 -132 0
99 29 -111 0
41 -76 0
31 -102 54 137 0
139 86 -42 23 0
-108 -73 -59 128 50 -139 0
-19 87 -139 98 -137 103 0
31 -42 0
-138 129 116 -71 -38 -39 0
-22 -123 -138 77 25 0
21 -93 42 -102 66 0
-90 -92 -13 -45 -44 0
-12 56 105 0
-79 -66 65 0
61 -77 -105 -31 113 131 0
38 126 0
-140 112 62 65 101 -143 0
57 79 111 122 -98 -90 0
24 -33 -19 0
-26 41 0
12 -28 0
-15 -90 20 98 0
-114 -107 -24 -34 0
137 -126 15 0
80 -50 44 -48 0
17 79 107 -100 35 0
144 0
